N = 286;
M = 706;
Edge_Start = [1, 1, 2, 3, 3, 4, 5, 5, 6, 7, 8, 9, 9, 10, 11, 11, 12, 13, 13, 14, 15, 16, 17, 17, 18, 19, 20, 21, 21, 22, 23, 24, 25, 25, 26, 27, 27, 28, 29, 29, 31, 31, 32, 33, 34, 35, 36, 37, 37, 38, 39, 39, 41, 41, 42, 43, 43, 44, 45, 45, 46, 47, 48, 48, 49, 50, 50, 51, 52, 53, 54, 54, 55, 56, 56, 57, 58, 58, 59, 60, 60, 61, 62, 62, 63, 64, 64, 65, 66, 67, 68, 68, 69, 70, 70, 73, 74, 75, 75, 77, 77, 78, 79, 79, 80, 81, 81, 83, 84, 85, 85, 86, 87, 87, 89, 89, 90, 91, 91, 92, 93, 93, 94, 95, 96, 96, 97, 98, 99, 100, 100, 101, 102, 102, 104, 104, 105, 106, 106, 107, 108, 109, 110, 110, 111, 112, 113, 114, 114, 115, 116, 116, 117, 118, 118, 120, 121, 121, 122, 123, 123, 124, 125, 127, 127, 128, 129, 129, 131, 131, 133, 134, 135, 136, 137, 137, 139, 139, 140, 141, 141, 143, 144, 144, 146, 146, 147, 148, 148, 149, 150, 150, 152, 152, 153, 154, 154, 155, 156, 156, 157, 158, 158, 160, 160, 161, 162, 162, 163, 164, 164, 165, 166, 166, 168, 169, 169, 170, 171, 171, 172, 173, 175, 175, 176, 177, 177, 178, 179, 180, 181, 181, 182, 183, 183, 184, 185, 186, 187, 187, 188, 189, 189, 190, 191, 192, 193, 194, 195, 196, 196, 197, 198, 198, 199, 200, 200, 201, 202, 202, 204, 204, 205, 206, 206, 207, 208, 208, 209, 210, 211, 212, 213, 214, 214, 216, 217, 217, 218, 219, 219, 220, 221, 221, 222, 223, 223, 224, 225, 226, 227, 227, 228, 229, 229, 230, 231, 231, 233, 233, 234, 235, 235, 236, 237, 238, 239, 240, 241, 242, 244, 246, 246, 247, 248, 248, 249, 250, 250, 251, 252, 253, 254, 254, 255, 256, 256, 257, 258, 258, 259, 261, 262, 264, 265, 266, 267, 268, 269, 270, 271, 272, 273, 275, 276, 277, 278, 279, 280, 281, 282, 284, 285, 2, 24, 3, 4, 26, 5, 6, 28, 7, 8, 9, 10, 32, 11, 12, 34, 13, 14, 36, 15, 16, 17, 18, 40, 19, 20, 21, 22, 44, 23, 46, 25, 26, 49, 27, 28, 51, 29, 30, 53, 32, 55, 33, 34, 35, 36, 37, 38, 61, 39, 40, 63, 42, 65, 43, 44, 67, 45, 46, 69, 47, 71, 49, 72, 50, 51, 74, 52, 76, 54, 55, 78, 56, 57, 80, 58, 59, 82, 60, 61, 84, 62, 63, 86, 64, 65, 88, 66, 67, 68, 69, 92, 70, 71, 94, 74, 75, 76, 99, 78, 101, 79, 80, 103, 81, 82, 105, 84, 85, 86, 109, 87, 88, 111, 90, 113, 91, 92, 115, 93, 94, 117, 95, 119, 97, 120, 98, 122, 100, 101, 124, 102, 103, 126, 105, 128, 106, 107, 130, 108, 132, 110, 111, 134, 112, 113, 114, 115, 138, 116, 117, 140, 118, 119, 142, 121, 122, 145, 123, 124, 147, 125, 149, 128, 151, 129, 130, 153, 132, 155, 134, 135, 159, 137, 138, 161, 140, 163, 141, 142, 165, 167, 145, 168, 147, 170, 148, 149, 172, 150, 151, 174, 153, 176, 154, 155, 178, 156, 157, 180, 158, 159, 182, 161, 184, 162, 163, 186, 164, 165, 188, 166, 167, 190, 169, 170, 193, 171, 172, 195, 173, 174, 176, 199, 177, 178, 201, 179, 203, 181, 182, 205, 183, 184, 207, 185, 209, 187, 188, 211, 189, 190, 213, 191, 215, 216, 194, 195, 196, 197, 220, 198, 199, 222, 200, 201, 224, 202, 203, 226, 205, 228, 206, 207, 230, 208, 209, 232, 210, 234, 212, 236, 214, 215, 238, 217, 218, 241, 219, 220, 243, 221, 222, 245, 223, 224, 247, 225, 249, 227, 228, 251, 229, 230, 253, 231, 232, 255, 234, 257, 235, 236, 259, 237, 261, 239, 263, 241, 242, 243, 268, 247, 270, 248, 249, 272, 250, 251, 274, 252, 276, 254, 255, 278, 256, 257, 280, 258, 259, 282, 260, 262, 286, 265, 266, 267, 268, 269, 270, 271, 272, 273, 274, 276, 277, 278, 279, 280, 281, 282, 283, 285, 286];
Edge_End = [2, 24, 3, 4, 26, 5, 6, 28, 7, 8, 9, 10, 32, 11, 12, 34, 13, 14, 36, 15, 16, 17, 18, 40, 19, 20, 21, 22, 44, 23, 46, 25, 26, 49, 27, 28, 51, 29, 30, 53, 32, 55, 33, 34, 35, 36, 37, 38, 61, 39, 40, 63, 42, 65, 43, 44, 67, 45, 46, 69, 47, 71, 49, 72, 50, 51, 74, 52, 76, 54, 55, 78, 56, 57, 80, 58, 59, 82, 60, 61, 84, 62, 63, 86, 64, 65, 88, 66, 67, 68, 69, 92, 70, 71, 94, 74, 75, 76, 99, 78, 101, 79, 80, 103, 81, 82, 105, 84, 85, 86, 109, 87, 88, 111, 90, 113, 91, 92, 115, 93, 94, 117, 95, 119, 97, 120, 98, 122, 100, 101, 124, 102, 103, 126, 105, 128, 106, 107, 130, 108, 132, 110, 111, 134, 112, 113, 114, 115, 138, 116, 117, 140, 118, 119, 142, 121, 122, 145, 123, 124, 147, 125, 149, 128, 151, 129, 130, 153, 132, 155, 134, 135, 159, 137, 138, 161, 140, 163, 141, 142, 165, 167, 145, 168, 147, 170, 148, 149, 172, 150, 151, 174, 153, 176, 154, 155, 178, 156, 157, 180, 158, 159, 182, 161, 184, 162, 163, 186, 164, 165, 188, 166, 167, 190, 169, 170, 193, 171, 172, 195, 173, 174, 176, 199, 177, 178, 201, 179, 203, 181, 182, 205, 183, 184, 207, 185, 209, 187, 188, 211, 189, 190, 213, 191, 215, 216, 194, 195, 196, 197, 220, 198, 199, 222, 200, 201, 224, 202, 203, 226, 205, 228, 206, 207, 230, 208, 209, 232, 210, 234, 212, 236, 214, 215, 238, 217, 218, 241, 219, 220, 243, 221, 222, 245, 223, 224, 247, 225, 249, 227, 228, 251, 229, 230, 253, 231, 232, 255, 234, 257, 235, 236, 259, 237, 261, 239, 263, 241, 242, 243, 268, 247, 270, 248, 249, 272, 250, 251, 274, 252, 276, 254, 255, 278, 256, 257, 280, 258, 259, 282, 260, 262, 286, 265, 266, 267, 268, 269, 270, 271, 272, 273, 274, 276, 277, 278, 279, 280, 281, 282, 283, 285, 286, 1, 1, 2, 3, 3, 4, 5, 5, 6, 7, 8, 9, 9, 10, 11, 11, 12, 13, 13, 14, 15, 16, 17, 17, 18, 19, 20, 21, 21, 22, 23, 24, 25, 25, 26, 27, 27, 28, 29, 29, 31, 31, 32, 33, 34, 35, 36, 37, 37, 38, 39, 39, 41, 41, 42, 43, 43, 44, 45, 45, 46, 47, 48, 48, 49, 50, 50, 51, 52, 53, 54, 54, 55, 56, 56, 57, 58, 58, 59, 60, 60, 61, 62, 62, 63, 64, 64, 65, 66, 67, 68, 68, 69, 70, 70, 73, 74, 75, 75, 77, 77, 78, 79, 79, 80, 81, 81, 83, 84, 85, 85, 86, 87, 87, 89, 89, 90, 91, 91, 92, 93, 93, 94, 95, 96, 96, 97, 98, 99, 100, 100, 101, 102, 102, 104, 104, 105, 106, 106, 107, 108, 109, 110, 110, 111, 112, 113, 114, 114, 115, 116, 116, 117, 118, 118, 120, 121, 121, 122, 123, 123, 124, 125, 127, 127, 128, 129, 129, 131, 131, 133, 134, 135, 136, 137, 137, 139, 139, 140, 141, 141, 143, 144, 144, 146, 146, 147, 148, 148, 149, 150, 150, 152, 152, 153, 154, 154, 155, 156, 156, 157, 158, 158, 160, 160, 161, 162, 162, 163, 164, 164, 165, 166, 166, 168, 169, 169, 170, 171, 171, 172, 173, 175, 175, 176, 177, 177, 178, 179, 180, 181, 181, 182, 183, 183, 184, 185, 186, 187, 187, 188, 189, 189, 190, 191, 192, 193, 194, 195, 196, 196, 197, 198, 198, 199, 200, 200, 201, 202, 202, 204, 204, 205, 206, 206, 207, 208, 208, 209, 210, 211, 212, 213, 214, 214, 216, 217, 217, 218, 219, 219, 220, 221, 221, 222, 223, 223, 224, 225, 226, 227, 227, 228, 229, 229, 230, 231, 231, 233, 233, 234, 235, 235, 236, 237, 238, 239, 240, 241, 242, 244, 246, 246, 247, 248, 248, 249, 250, 250, 251, 252, 253, 254, 254, 255, 256, 256, 257, 258, 258, 259, 261, 262, 264, 265, 266, 267, 268, 269, 270, 271, 272, 273, 275, 276, 277, 278, 279, 280, 281, 282, 284, 285];
L = [2, 17, 3, 18, 4, 12, 6, 1, 12, 3, 10, 5, 13, 4, 13, 16, 15, 12, 16, 12, 15, 8, 2, 2, 14, 5, 1, 10, 4, 15, 14, 3, 8, 5, 3, 3, 1, 4, 5, 5, 8, 8, 3, 4, 12, 9, 1, 16, 13, 7, 11, 7, 6, 10, 6, 6, 1, 14, 15, 15, 15, 8, 2, 10, 1, 7, 6, 15, 3, 10, 7, 19, 18, 9, 19, 8, 9, 5, 12, 2, 16, 9, 15, 11, 4, 14, 1, 15, 11, 6, 9, 11, 16, 15, 10, 1, 4, 8, 2, 16, 13, 1, 16, 3, 1, 18, 6, 11, 17, 7, 1, 9, 14, 4, 5, 17, 16, 3, 16, 8, 16, 12, 1, 13, 11, 11, 9, 13, 9, 1, 6, 8, 1, 16, 11, 3, 6, 11, 12, 6, 5, 11, 16, 7, 6, 13, 16, 8, 18, 9, 15, 13, 14, 1, 3, 15, 7, 4, 6, 2, 11, 5, 12, 15, 6, 6, 10, 17, 11, 15, 18, 11, 8, 10, 5, 4, 1, 12, 10, 9, 10, 13, 1, 5, 1, 16, 1, 2, 12, 1, 9, 6, 7, 6, 11, 8, 9, 4, 14, 5, 2, 9, 17, 7, 2, 16, 11, 15, 7, 5, 3, 1, 7, 4, 4, 4, 15, 3, 10, 5, 6, 2, 18, 7, 4, 4, 2, 9, 2, 14, 15, 18, 15, 10, 6, 18, 15, 3, 5, 5, 15, 18, 13, 8, 10, 15, 2, 12, 16, 8, 13, 7, 3, 14, 18, 18, 10, 4, 14, 18, 16, 8, 18, 17, 19, 16, 7, 3, 18, 14, 5, 15, 9, 9, 11, 8, 11, 3, 8, 3, 15, 16, 5, 13, 7, 1, 3, 11, 3, 6, 7, 3, 4, 2, 11, 17, 1, 13, 13, 17, 1, 14, 6, 11, 5, 10, 1, 5, 1, 13, 11, 6, 3, 13, 10, 4, 3, 19, 8, 13, 17, 10, 9, 15, 5, 3, 10, 3, 3, 2, 15, 18, 5, 1, 16, 12, 12, 9, 10, 12, 11, 3, 7, 4, 12, 3, 9, 8, 14, 13, 16, 10, 14, 2, 17, 3, 18, 4, 12, 6, 1, 12, 3, 10, 5, 13, 4, 13, 16, 15, 12, 16, 12, 15, 8, 2, 2, 14, 5, 1, 10, 4, 15, 14, 3, 8, 5, 3, 3, 1, 4, 5, 5, 8, 8, 3, 4, 12, 9, 1, 16, 13, 7, 11, 7, 6, 10, 6, 6, 1, 14, 15, 15, 15, 8, 2, 10, 1, 7, 6, 15, 3, 10, 7, 19, 18, 9, 19, 8, 9, 5, 12, 2, 16, 9, 15, 11, 4, 14, 1, 15, 11, 6, 9, 11, 16, 15, 10, 1, 4, 8, 2, 16, 13, 1, 16, 3, 1, 18, 6, 11, 17, 7, 1, 9, 14, 4, 5, 17, 16, 3, 16, 8, 16, 12, 1, 13, 11, 11, 9, 13, 9, 1, 6, 8, 1, 16, 11, 3, 6, 11, 12, 6, 5, 11, 16, 7, 6, 13, 16, 8, 18, 9, 15, 13, 14, 1, 3, 15, 7, 4, 6, 2, 11, 5, 12, 15, 6, 6, 10, 17, 11, 15, 18, 11, 8, 10, 5, 4, 1, 12, 10, 9, 10, 13, 1, 5, 1, 16, 1, 2, 12, 1, 9, 6, 7, 6, 11, 8, 9, 4, 14, 5, 2, 9, 17, 7, 2, 16, 11, 15, 7, 5, 3, 1, 7, 4, 4, 4, 15, 3, 10, 5, 6, 2, 18, 7, 4, 4, 2, 9, 2, 14, 15, 18, 15, 10, 6, 18, 15, 3, 5, 5, 15, 18, 13, 8, 10, 15, 2, 12, 16, 8, 13, 7, 3, 14, 18, 18, 10, 4, 14, 18, 16, 8, 18, 17, 19, 16, 7, 3, 18, 14, 5, 15, 9, 9, 11, 8, 11, 3, 8, 3, 15, 16, 5, 13, 7, 1, 3, 11, 3, 6, 7, 3, 4, 2, 11, 17, 1, 13, 13, 17, 1, 14, 6, 11, 5, 10, 1, 5, 1, 13, 11, 6, 3, 13, 10, 4, 3, 19, 8, 13, 17, 10, 9, 15, 5, 3, 10, 3, 3, 2, 15, 18, 5, 1, 16, 12, 12, 9, 10, 12, 11, 3, 7, 4, 12, 3, 9, 8, 14, 13, 16, 10, 14];
T = [3, 24, 1, 16, 1, 9, 1, 3, 16, 3, 15, 1, 13, 9, 12, 5, 10, 19, 17, 16, 12, 10, 1, 5, 8, 1, 1, 1, 1, 22, 9, 1, 13, 3, 6, 1, 3, 2, 8, 12, 17, 11, 4, 7, 14, 15, 6, 15, 12, 5, 10, 4, 4, 13, 9, 9, 2, 11, 14, 11, 19, 3, 1, 17, 5, 2, 3, 9, 6, 7, 6, 22, 19, 12, 10, 8, 5, 5, 12, 1, 14, 13, 16, 10, 2, 19, 1, 19, 5, 14, 11, 6, 17, 15, 2, 9, 3, 1, 4, 5, 14, 1, 7, 2, 1, 20, 5, 15, 16, 3, 2, 11, 9, 3, 8, 28, 13, 8, 18, 10, 15, 19, 5, 4, 16, 7, 4, 16, 4, 1, 1, 12, 1, 20, 11, 1, 1, 17, 2, 7, 5, 11, 12, 4, 9, 1, 16, 7, 15, 17, 21, 11, 6, 3, 13, 18, 8, 5, 11, 1, 9, 9, 14, 22, 1, 1, 9, 19, 11, 9, 23, 21, 12, 13, 1, 11, 1, 17, 16, 14, 10, 17, 8, 5, 1, 10, 1, 1, 8, 1, 10, 8, 10, 13, 8, 10, 8, 10, 15, 2, 1, 14, 20, 8, 1, 23, 13, 7, 10, 2, 1, 1, 4, 1, 2, 3, 11, 1, 2, 1, 9, 1, 15, 14, 2, 3, 1, 4, 1, 8, 16, 4, 9, 9, 8, 23, 16, 2, 1, 7, 9, 24, 17, 11, 8, 12, 2, 6, 20, 2, 18, 1, 16, 19, 23, 17, 9, 7, 7, 15, 18, 13, 19, 21, 19, 10, 5, 10, 27, 16, 4, 12, 9, 4, 10, 3, 7, 1, 6, 2, 18, 10, 2, 1, 8, 1, 7, 6, 5, 3, 1, 1, 7, 1, 5, 23, 8, 16, 16, 24, 1, 12, 3, 7, 3, 7, 1, 11, 1, 15, 7, 11, 1, 13, 7, 1, 5, 23, 1, 6, 23, 15, 9, 21, 1, 1, 3, 7, 7, 12, 17, 22, 1, 6, 18, 5, 11, 7, 5, 14, 11, 9, 12, 1, 7, 7, 4, 7, 10, 9, 17, 8, 9, 3, 24, 1, 16, 1, 9, 1, 3, 16, 3, 15, 1, 13, 9, 12, 5, 10, 19, 17, 16, 12, 10, 1, 5, 8, 1, 1, 1, 1, 22, 9, 1, 13, 3, 6, 1, 3, 2, 8, 12, 17, 11, 4, 7, 14, 15, 6, 15, 12, 5, 10, 4, 4, 13, 9, 9, 2, 11, 14, 11, 19, 3, 1, 17, 5, 2, 3, 9, 6, 7, 6, 22, 19, 12, 10, 8, 5, 5, 12, 1, 14, 13, 16, 10, 2, 19, 1, 19, 5, 14, 11, 6, 17, 15, 2, 9, 3, 1, 4, 5, 14, 1, 7, 2, 1, 20, 5, 15, 16, 3, 2, 11, 9, 3, 8, 28, 13, 8, 18, 10, 15, 19, 5, 4, 16, 7, 4, 16, 4, 1, 1, 12, 1, 20, 11, 1, 1, 17, 2, 7, 5, 11, 12, 4, 9, 1, 16, 7, 15, 17, 21, 11, 6, 3, 13, 18, 8, 5, 11, 1, 9, 9, 14, 22, 1, 1, 9, 19, 11, 9, 23, 21, 12, 13, 1, 11, 1, 17, 16, 14, 10, 17, 8, 5, 1, 10, 1, 1, 8, 1, 10, 8, 10, 13, 8, 10, 8, 10, 15, 2, 1, 14, 20, 8, 1, 23, 13, 7, 10, 2, 1, 1, 4, 1, 2, 3, 11, 1, 2, 1, 9, 1, 15, 14, 2, 3, 1, 4, 1, 8, 16, 4, 9, 9, 8, 23, 16, 2, 1, 7, 9, 24, 17, 11, 8, 12, 2, 6, 20, 2, 18, 1, 16, 19, 23, 17, 9, 7, 7, 15, 18, 13, 19, 21, 19, 10, 5, 10, 27, 16, 4, 12, 9, 4, 10, 3, 7, 1, 6, 2, 18, 10, 2, 1, 8, 1, 7, 6, 5, 3, 1, 1, 7, 1, 5, 23, 8, 16, 16, 24, 1, 12, 3, 7, 3, 7, 1, 11, 1, 15, 7, 11, 1, 13, 7, 1, 5, 23, 1, 6, 23, 15, 9, 21, 1, 1, 3, 7, 7, 12, 17, 22, 1, 6, 18, 5, 11, 7, 5, 14, 11, 9, 12, 1, 7, 7, 4, 7, 10, 9, 17, 8, 9];
Lower_Bound = [0, 3, 4, 20, 15, 16, 32, 35, 50, 51, 60, 72, 82, 101, 117, 129, 135, 136, 144, 145, 146, 147, 169, 19, 18, 5, 11, 12, 14, 22, 50, 63, 67, 65, 79, 94, 100, 115, 120, 130, 158, 162, 156, 147, 158, 172, 191, 22, 21, 16, 14, 23, 26, 33, 39, 58, 70, 78, 83, 95, 96, 109, 124, 126, 145, 163, 158, 172, 169, 186, 194, 39, 28, 19, 22, 23, 45, 47, 46, 53, 54, 74, 124, 109, 122, 119, 130, 127, 171, 179, 184, 178, 188, 188, 193, 76, 63, 59, 26, 30, 31, 43, 44, 70, 59, 60, 77, 84, 124, 135, 133, 142, 143, 159, 166, 183, 204, 200, 197, 69, 51, 43, 32, 31, 40, 63, 55, 71, 71, 62, 100, 89, 162, 139, 160, 188, 175, 174, 195, 194, 210, 213, 229, 62, 56, 42, 41, 42, 43, 44, 54, 100, 90, 98, 108, 118, 133, 134, 148, 163, 171, 194, 207, 205, 207, 208, 212, 57, 55, 52, 52, 50, 53, 52, 106, 111, 109, 106, 110, 120, 128, 144, 153, 162, 185, 201, 203, 204, 213, 209, 220, 121, 61, 59, 53, 73, 75, 76, 92, 113, 110, 117, 111, 149, 132, 151, 161, 171, 176, 203, 210, 214, 230, 232, 228, 109, 106, 99, 93, 91, 97, 95, 103, 104, 110, 132, 135, 136, 143, 144, 167, 175, 198, 192, 191, 203, 210, 242, 249, 118, 107, 108, 111, 141, 98, 121, 110, 122, 115, 120, 136, 142, 148, 163, 172, 173, 174, 181, 188, 205, 213, 235, 250, 174, 168, 150, 145, 134, 127, 122, 134, 123, 132, 121, 166, 165, 172, 179, 183, 176, 186, 193, 210, 253, 245, 236];
Upper_Bound = [0, 3, 4, 20, 15, 16, 32, 35, 50, 51, 60, 72, 82, 101, 117, 129, 135, 136, 144, 145, 146, 147, 169, 19, 18, 5, 11, 12, 14, 22, 50, 63, 67, 65, 79, 94, 100, 115, 120, 130, 158, 162, 156, 147, 158, 172, 191, 22, 21, 16, 14, 23, 26, 33, 39, 58, 70, 78, 83, 95, 96, 109, 124, 126, 145, 163, 158, 172, 169, 186, 194, 39, 28, 19, 22, 23, 45, 47, 46, 53, 54, 74, 124, 109, 122, 119, 130, 127, 171, 179, 184, 178, 188, 188, 193, 76, 63, 59, 26, 30, 31, 43, 44, 70, 59, 60, 77, 84, 124, 135, 133, 142, 143, 159, 166, 183, 204, 200, 197, 69, 51, 43, 32, 31, 40, 63, 55, 71, 71, 62, 100, 89, 162, 139, 160, 188, 175, 174, 195, 194, 210, 213, 229, 62, 56, 42, 41, 42, 43, 44, 54, 100, 90, 98, 108, 118, 133, 134, 148, 163, 171, 194, 207, 205, 207, 208, 212, 57, 55, 52, 52, 50, 53, 52, 106, 111, 109, 106, 110, 120, 128, 144, 153, 162, 185, 201, 203, 204, 213, 209, 220, 121, 61, 59, 53, 73, 75, 76, 92, 113, 110, 117, 111, 149, 132, 151, 161, 171, 176, 203, 210, 214, 230, 232, 228, 109, 106, 99, 93, 91, 97, 95, 103, 104, 110, 132, 135, 136, 143, 144, 167, 175, 198, 192, 191, 203, 210, 242, 249, 118, 107, 108, 111, 141, 98, 121, 110, 122, 115, 120, 136, 142, 148, 163, 172, 173, 174, 181, 188, 205, 213, 235, 250, 174, 168, 150, 145, 134, 127, 122, 134, 123, 132, 121, 166, 165, 172, 179, 183, 176, 186, 193, 210, 253, 245, 236];
Start = 1;
End = 286;
Time = 236;
